50
200 200
1 139 87
2 136 581
3 134 535
4 131 753
5 131 964
6 128 991
7 127 326
8 126 438
9 126 290
10 122 1000
11 121 962
12 114 875
13 112 863
14 110 614
15 109 892
16 104 662
17 102 279
18 97 403
19 96 848
20 95 148
21 93 137
22 93 483
23 92 735
24 89 928
25 82 779
26 81 632
27 76 747
28 68 406
29 67 658
30 64 902
31 62 350
32 59 418
33 59 213
34 55 203
35 54 427
36 54 338
37 52 719
38 49 391
39 46 831
40 45 110
41 41 675
42 41 154
43 40 246
44 40 281
45 38 153
46 32 876
47 30 851
48 23 829
49 23 939
50 21 125
